7,1,6,2,2,3,1,2,3,4,8,5,4,1,10,3,9,4,5,5;1,1,3,1,6,4,8,4,2,5,9,3,7,3,5,4,4,4,10,5;9,1,8,2,3,3,10,1,2,4,6,5,5,2,1,4,7,5,4,5;6,1,2,2,3,2,8,3,9,2,10,2,7,2,4,2,5,3,1,5;2,1,8,1,6,3,5,1,1,3,3,5,4,3,7,4,10,4,9,5;
